100
128
50
8
8
20
9
55
40
61
12
1
16
55
16
38
31
21
59
20
44
37
37
15
5
31
44
6
13
9
14
10
48
7
13
17
5
32
15
9
26
5
6
12
14
29
15
2
7
27
18
14
3
20
10
2
34
23
19
6
14
19
2
1
9
10
40
28
8
8
15
13
59
1
44
19
7
24
1
10
7
6
11
48
58
32
42
2
52
44
43
14
30
53
18
28
63
41
24
29
42
57